\ENCODING=ISO-8859-1
\Problem name: instances

Maximize
 obj:
Subject To
 c1: 86 x1 + 44 x2 + 100 x3 + 13 x4 + x5 + 11 x6 - 30 x7 + 99 x8 + 89 x9
     + 5 x10 <= 328
 c2: 10 x1 + 52 x2 + 56 x3 + 16 x4 + 23 x5 + 31 x6 + 88 x8 + 100 x10 <= 291
 c3: 44 x1 + 74 x2 + 72 x4 + 18 x5 + 83 x6 + 33 x7 + 44 x8 + 16 x9 + 11 x10
     <= 191
 c4: 33 x1 + 48 x3 + 62 x4 + 17 x5 + 36 x6 + 5 x7 + 56 x8 + 27 x10 <= 278
 c5: 54 x1 + 56 x2 + 54 x3 + 70 x4 + 99 x5 + 100 x6 + 13 x7 + 70 x10 <= 429
Bounds
      x1 >= 0
      x2 >= 0
      x3 >= 0
      x4 >= 0
      x5 >= 0
      x6 >= 0
      x7 >= 0
      x8 >= 0
      x9 >= 0
      x10 >= 0
Generals
 x1  x2  x3  x4  x5  x6  x7  x8  x9  x10 
End
